************************************************************************
file with basedata            : cr352_.bas
initial value random generator: 408507156
************************************************************************
projects                      :  1
jobs (incl. supersource/sink ):  18
horizon                       :  124
RESOURCES
  - renewable                 :  3   R
  - nonrenewable              :  2   N
  - doubly constrained        :  0   D
************************************************************************
PROJECT INFORMATION:
pronr.  #jobs rel.date duedate tardcost  MPM-Time
    1     16      0       18        3       18
************************************************************************
PRECEDENCE RELATIONS:
jobnr.    #modes  #successors   successors
   1        1          3           2   3   4
   2        3          3           5   7   8
   3        3          3           6  13  14
   4        3          3           6   7  10
   5        3          2          15  16
   6        3          1          11
   7        3          1           9
   8        3          2           9  10
   9        3          3          11  15  17
  10        3          3          12  13  14
  11        3          1          12
  12        3          1          16
  13        3          1          17
  14        3          3          15  16  17
  15        3          1          18
  16        3          1          18
  17        3          1          18
  18        1          0        
************************************************************************
REQUESTS/DURATIONS:
jobnr. mode duration  R 1  R 2  R 3  N 1  N 2
------------------------------------------------------------------------
  1      1     0       0    0    0    0    0
  2      1     7       6    0    0    7   10
         2     8       0    0    8    6    8
         3     9       0    8    0    6    7
  3      1     3       3    5    0    5    8
         2     6       0    3    0    5    8
         3    10       0    0    5    3    8
  4      1     2       3    5    0    6    5
         2     2       0    5    0    8    5
         3     6       4    0    0    5    2
  5      1     1       0    6    7    4    8
         2     4       9    4    0    3    7
         3     6       0    3    4    2    4
  6      1     3       0    9    5    7    8
         2     4       0    7    0    7    7
         3    10       5    2    3    6    4
  7      1     2       8   10    0    4    7
         2     6       0    2    0    4    3
         3     6       0    5    6    1    4
  8      1     1       4    9    0    7    8
         2     6       0    7    0    6    5
         3     6       0    0    9    4    5
  9      1     2       0    0    5    9    7
         2     3       8    0    0    9    6
         3     4       0    3    0    9    2
 10      1     1       0    6    0    4    8
         2     4       3    0    6    3    8
         3     6       3    0    3    3    8
 11      1     1       0    9    5   10   10
         2     4       0    9    0    8   10
         3     7       0    8    0    7   10
 12      1     2       5    9    0    3    4
         2    10       4    0    9    3    2
         3    10       5    9    0    3    2
 13      1     5       3    8    0    8    7
         2     7       0    0    6    7    3
         3     7       0    0    8    6    2
 14      1     5       0    8    8    2    9
         2     7       2    8    0    2    6
         3     9       0    6    0    1    4
 15      1     3       0    0    9    5    7
         2     9       0    0    6    5    7
         3    10       7    2    4    5    3
 16      1     2       3    5    8    7    5
         2     5       0    0    7    6    4
         3     8       2    4    0    5    4
 17      1     4       4    0    0    7    5
         2     9       0    6    0    7    5
         3    10       0    0    2    6    4
 18      1     0       0    0    0    0    0
************************************************************************
RESOURCEAVAILABILITIES:
  R 1  R 2  R 3  N 1  N 2
   26   25   27   91  105
************************************************************************
